NAME : mEgtspf.pid7232.gtsp.322122755.tour
COMMENT : Length = 322122755
COMMENT : Found by LKH [Keld Helsgaun] Tue Mar 25 10:35:01 2025
TYPE : TOUR
DIMENSION : 210
TOUR_SECTION
1
114
111
112
113
167
168
169
170
4
76
77
78
75
31
32
33
34
91
92
93
94
16
17
18
15
135
136
137
138
130
127
128
129
30
27
28
29
198
195
196
197
141
142
139
140
121
122
119
120
97
98
95
96
64
65
66
63
61
62
59
60
58
55
56
57
49
50
47
48
166
163
164
165
35
36
37
38
191
192
193
194
23
24
25
26
147
148
149
150
70
67
68
69
189
190
187
188
6
117
118
115
116
206
203
204
205
177
178
175
176
172
173
174
171
201
202
199
200
145
146
143
144
180
181
182
179
99
100
101
102
152
153
154
151
155
156
157
158
103
104
105
106
162
159
160
161
10
9
54
51
52
53
3
87
88
89
90
126
123
124
125
21
22
19
20
7
207
208
209
210
134
131
132
133
5
184
185
186
183
8
81
82
79
80
108
109
110
107
12
13
14
11
2
86
83
84
85
73
74
71
72
43
44
45
46
39
40
41
42
-1
EOF
